58537
6, 3, 55, 28, 49, 26, 54, 34, 9, 14, 2, 45, 52, 25, 11, 31, 1, 27, 33, 42, 12, 18, 4, 30, 47, 53, 10, 22, 16, 39, 15, 36, 46, 29, 21, 23, 48, 17, 19, 44, 8, 38, 50, 20, 7, 37, 5, 35, 24, 41, 32, 13, 51, 40, 43
